%%% static parameters %%%
timespan = 1;
Fact = [2];
Distr1 = [5];
Distr2 = [10];
Clients_N = [60];
Demand_W = [15];
Lt0 = [4];
Lt1 = [4];
SS_ = [0.85];
DS_D = [8];
K = [200];
MA = [500];
%%% dynamic parameters %%%
lost_ratio_sales_ret_th = 0.21120929591403081;
lost_ratio_sales_ret_w = 4;
lost_ratio_sales_dis_th = 0.20102331736078116;
lost_ratio_sales_dis_w = 87;
lost_ratio_sales_fac_th = 0.3229868426916207;
lost_ratio_sales_fac_w = 87;
stock_customer_MA_mean_relative_th = 0.8234948602715719;
stock_customer_MA_mean_relative_w = 7;
stock_distributor_MA_mean_relative_th = 0.10479965360764221;
stock_distributor_MA_mean_relative_w = 55;
stock_retailer_MA_mean_relative_th = 0.08989693608879601;
stock_retailer_MA_mean_relative_w = 27;
stock_factory_MA_mean_relative_th = 0.4041246558417747;
stock_factory_MA_mean_relative_w = 79;
